MARKOV
907
 2 2 2 2 2 2 2 2 2 2 2 2 2 2 2 2 2 2 2 2 2 2 2 2 2 2 2 2 2 2 2 2 2 2 2 2 2 2 2 2 2 2 2 2 2 2 2 2 2 2 2 2 2 2 2 2 2 2 2 2 2 2 2 2 2 2 2 2 2 2 2 2 2 2 2 2 2 2 2 2 2 2 2 2 2 2 2 2 2 2 2 2 2 2 2 2 2 2 2 2 2 2 2 2 2 2 2 2 2 2 2 2 2 2 2 2 2 2 2 2 2 2 2 2 2 2 2 2 2 2 2 2 2 2 2 2 2 2 2 2 2 2 2 2 2 2 2 2 2 2 2 2 2 2 2 2 2 2 2 2 2 2 2 2 2 2 2 2 2 2 2 2 2 2 2 2 2 2 2 2 2 2 2 2 2 2 2 2 2 2 2 2 2 2 2 2 2 2 2 2 2 2 2 2 2 2 2 2 2 2 2 2 2 2 2 2 2 2 2 2 2 2 2 2 2 2 2 2 2 2 2 2 2 2 2 2 2 2 2 2 2 2 2 2 2 2 2 2 2 2 2 2 2 2 2 2 2 2 2 2 2 2 2 2 2 2 2 2 2 2 2 2 2 2 2 2 2 2 2 2 2 2 2 2 2 2 2 2 2 2 2 2 2 2 2 2 2 2 2 2 2 2 2 2 2 2 2 2 2 2 2 2 2 2 2 2 2 2 2 2 2 2 2 2 2 2 2 2 2 2 2 2 2 2 2 2 2 2 2 2 2 2 2 2 2 2 2 2 2 2 2 2 2 2 2 2 2 2 2 2 2 2 2 2 2 2 2 2 2 2 2 2 2 2 2 2 2 2 2 2 2 2 2 2 2 2 2 2 2 2 2 2 2 2 2 2 2 2 2 2 2 2 2 2 2 2 2 2 2 2 2 2 2 2 2 2 2 2 2 2 2 2 2 2 2 2 2 2 2 2 2 2 2 2 2 2 2 2 2 2 2 2 2 2 2 2 2 2 2 2 2 2 2 2 2 2 2 2 2 2 2 2 2 2 2 2 2 2 2 2 2 2 2 2 2 2 2 2 2 2 2 2 2 2 2 2 2 2 2 2 2 2 2 2 2 2 2 2 2 2 2 2 2 2 2 2 2 2 2 2 2 2 2 2 2 2 2 2 2 2 2 2 2 2 2 2 2 2 2 2 2 2 2 2 2 2 2 2 2 2 2 2 2 2 2 2 2 2 2 2 2 2 2 2 2 2 2 2 2 2 2 2 2 2 2 2 2 2 2 2 2 2 2 2 2 2 2 2 2 2 2 2 2 2 2 2 2 2 2 2 2 2 2 2 2 2 2 2 2 2 2 2 2 2 2 2 2 2 2 2 2 2 2 2 2 2 2 2 2 2 2 2 2 2 2 2 2 2 2 2 2 2 2 2 2 2 2 2 2 2 2 2 2 2 2 2 2 2 2 2 2 2 2 2 2 2 2 2 2 2 2 2 2 2 2 2 2 2 2 2 2 2 2 2 2 2 2 2 2 2 2 2 2 2 2 2 2 2 2 2 2 2 2 2 2 2 2 2 2 2 2 2 2 2 2 2 2 2 2 2 2 2 2 2 2 2 2 2 2 2 2 2 2 2 2 2 2 2 2 2 2 2 2 2 2 2 2 2 2 2 2 2 2 2 2 2 2 2 2 2 2 2 2 2 2 2 2 2 2 2 2 2 2 2 2 2 2 2 2 2 2 2 2 2 2 2 2 2 2 2 2 2 2 2 2 2 2 2 2 2 2 2 2 2 2 2 2 2 2 2 2 2 2 2 2 2 2 2 2 2 2 2 2 2 2 2 2 2 2 2 2 2 2 2 2 2 2 2 2 2 2 2 2 2 2 2 2 2 2 2 2 2 2 2 2 2 2 2 2 2 2 2 2 2 2 2 2 2 2 2 2 2 2 2 2 2 2 2 2 2 2 2 2 2 2 2 2 2 2 2 2 2 2 2 2 2 2 2 2 2 2 2 2 2 2 2 2 2 2 2 2 2 2 2 2 2 2
917
3	105 148 906 
3	161 905 906 
3	262 904 905 
3	288 903 904 
3	202 902 903 
3	48 901 902 
3	410 900 901 
3	364 899 900 
3	287 898 899 
3	395 897 898 
3	315 896 897 
3	33 895 896 
3	267 894 895 
3	293 893 894 
3	243 892 893 
1	892 
3	299 326 891 
3	100 890 891 
3	37 889 890 
3	125 888 889 
3	205 887 888 
3	57 886 887 
3	281 885 886 
3	106 884 885 
3	89 883 884 
3	286 882 883 
3	354 881 882 
3	203 880 881 
3	393 879 880 
3	263 878 879 
3	16 877 878 
3	140 876 877 
3	149 875 876 
3	144 874 875 
3	122 873 874 
3	391 872 873 
3	82 871 872 
3	222 870 871 
3	392 869 870 
3	104 868 869 
3	376 867 868 
3	330 866 867 
3	301 865 866 
3	238 864 865 
3	138 863 864 
3	382 862 863 
3	400 861 862 
3	78 860 861 
3	215 859 860 
3	300 858 859 
3	364 857 858 
3	257 856 857 
3	334 855 856 
3	19 854 855 
3	231 853 854 
3	197 852 853 
3	224 851 852 
3	18 850 851 
3	47 849 850 
3	28 848 849 
3	61 847 848 
3	267 846 847 
3	345 845 846 
3	206 844 845 
3	251 843 844 
3	143 842 843 
3	38 841 842 
3	232 840 841 
3	212 839 840 
3	276 838 839 
3	46 837 838 
3	130 836 837 
3	318 835 836 
3	254 834 835 
3	124 833 834 
3	173 832 833 
3	97 831 832 
3	204 830 831 
3	80 829 830 
3	119 828 829 
3	402 827 828 
3	4 826 827 
3	408 825 826 
3	25 824 825 
3	283 823 824 
3	407 822 823 
3	337 821 822 
3	226 820 821 
3	372 819 820 
3	381 818 819 
3	292 817 818 
3	331 816 817 
3	365 815 816 
3	359 814 815 
3	102 813 814 
3	141 812 813 
3	39 811 812 
3	178 810 811 
3	351 809 810 
3	111 808 809 
3	175 807 808 
3	324 806 807 
3	30 805 806 
3	32 804 805 
3	76 803 804 
3	340 802 803 
3	350 801 802 
3	265 800 801 
3	349 799 800 
3	131 798 799 
3	63 797 798 
3	291 796 797 
3	187 795 796 
3	135 794 795 
3	107 793 794 
3	69 792 793 
3	209 791 792 
3	386 790 791 
3	269 789 790 
3	101 788 789 
3	72 787 788 
3	270 786 787 
3	234 785 786 
3	378 784 785 
3	96 783 784 
3	120 782 783 
3	250 781 782 
3	83 780 781 
3	352 779 780 
3	134 778 779 
3	274 777 778 
3	261 776 777 
3	15 775 776 
3	347 774 775 
3	14 773 774 
3	227 772 773 
3	397 771 772 
3	50 770 771 
3	70 769 770 
3	373 768 769 
3	166 767 768 
3	411 766 767 
3	259 765 766 
3	284 764 765 
3	172 763 764 
3	164 762 763 
3	363 761 762 
3	371 760 761 
3	302 759 760 
3	211 758 759 
3	20 757 758 
3	67 756 757 
3	132 755 756 
3	66 754 755 
3	309 753 754 
3	159 752 753 
3	108 751 752 
3	153 750 751 
3	142 749 750 
3	266 748 749 
3	56 747 748 
3	319 746 747 
3	44 745 746 
3	151 744 745 
3	333 743 744 
3	118 742 743 
3	148 741 742 
3	13 740 741 
3	194 739 740 
3	165 738 739 
3	282 737 738 
3	84 736 737 
3	41 735 736 
3	356 734 735 
3	90 733 734 
3	60 732 733 
3	370 731 732 
3	336 730 731 
3	49 729 730 
3	207 728 729 
3	329 727 728 
3	136 726 727 
3	29 725 726 
3	221 724 725 
3	225 723 724 
3	355 722 723 
3	311 721 722 
3	9 720 721 
3	253 719 720 
3	64 718 719 
3	406 717 718 
3	362 716 717 
3	126 715 716 
3	367 714 715 
3	396 713 714 
3	322 712 713 
3	398 711 712 
3	168 710 711 
3	3 709 710 
3	59 708 709 
3	312 707 708 
3	223 706 707 
3	233 705 706 
3	332 704 705 
3	214 703 704 
3	85 702 703 
3	198 701 702 
3	245 700 701 
3	162 699 700 
3	275 698 699 
3	293 697 698 
3	305 696 697 
3	139 695 696 
3	74 694 695 
3	170 693 694 
3	163 692 693 
3	94 691 692 
3	114 690 691 
3	294 689 690 
3	295 688 689 
3	77 687 688 
3	103 686 687 
3	167 685 686 
3	137 684 685 
3	154 683 684 
3	401 682 683 
3	129 681 682 
3	308 680 681 
3	229 679 680 
3	17 678 679 
3	200 677 678 
3	190 676 677 
3	252 675 676 
3	346 674 675 
3	320 673 674 
3	5 672 673 
3	183 671 672 
3	272 670 671 
3	23 669 670 
3	68 668 669 
3	48 667 668 
3	403 666 667 
3	242 665 666 
3	192 664 665 
3	58 663 664 
3	121 662 663 
3	147 661 662 
3	128 660 661 
3	317 659 660 
3	150 658 659 
3	92 657 658 
3	160 656 657 
3	277 655 656 
3	208 654 655 
3	310 653 654 
3	171 652 653 
3	22 651 652 
3	184 650 651 
3	296 649 650 
3	399 648 649 
3	146 647 648 
3	375 646 647 
3	202 645 646 
3	389 644 645 
3	241 643 644 
3	115 642 643 
3	369 641 642 
3	33 640 641 
3	155 639 640 
3	6 638 639 
3	380 637 638 
3	36 636 637 
3	42 635 636 
3	388 634 635 
3	237 633 634 
3	62 632 633 
3	316 631 632 
3	145 630 631 
3	8 629 630 
3	123 628 629 
3	12 627 628 
3	262 626 627 
3	216 625 626 
3	328 624 625 
3	93 623 624 
3	264 622 623 
3	133 621 622 
3	404 620 621 
3	35 619 620 
3	268 618 619 
3	361 617 618 
3	249 616 617 
3	2 615 616 
3	255 614 615 
3	86 613 614 
3	95 612 613 
3	289 611 612 
3	280 610 611 
3	383 609 610 
3	65 608 609 
3	394 607 608 
3	258 606 607 
3	185 605 606 
3	98 604 605 
3	217 603 604 
3	112 602 603 
3	384 601 602 
1	601 
3	158 348 600 
3	409 599 600 
3	180 598 599 
3	117 597 598 
3	132 596 597 
3	152 595 596 
3	10 594 595 
3	182 593 594 
3	368 592 593 
3	331 591 592 
3	91 590 591 
3	327 589 590 
3	366 588 589 
3	40 587 588 
3	141 586 587 
3	194 585 586 
3	248 584 585 
3	181 583 584 
3	191 582 583 
3	399 581 582 
3	116 580 581 
3	298 579 580 
3	73 578 579 
3	202 577 578 
3	321 576 577 
3	350 575 576 
3	6 574 575 
3	253 573 574 
3	239 572 573 
3	285 571 572 
3	256 570 571 
3	201 569 570 
3	228 568 569 
3	246 567 568 
3	325 566 567 
3	59 565 566 
3	28 564 565 
3	275 563 564 
3	267 562 563 
3	323 561 562 
3	109 560 561 
3	240 559 560 
3	236 558 559 
3	395 557 558 
3	0 556 557 
3	179 555 556 
3	247 554 555 
1	554 
3	45 385 553 
3	285 552 553 
3	374 551 552 
3	201 550 551 
3	26 549 550 
3	113 548 549 
3	339 547 548 
3	313 546 547 
3	358 545 546 
3	79 544 545 
3	174 543 544 
3	360 542 543 
3	341 541 542 
3	27 540 541 
3	99 539 540 
3	387 538 539 
3	304 537 538 
3	53 536 537 
3	31 535 536 
3	260 534 535 
3	141 533 534 
3	156 532 533 
3	11 531 532 
3	88 530 531 
3	218 529 530 
3	52 528 529 
3	244 527 528 
3	235 526 527 
3	353 525 526 
3	290 524 525 
3	7 523 524 
3	379 522 523 
3	377 521 522 
3	157 520 521 
3	343 519 520 
3	71 518 519 
3	342 517 518 
3	17 516 517 
3	247 515 516 
3	164 514 515 
1	514 
3	136 219 513 
3	43 512 513 
3	258 511 512 
3	54 510 511 
3	1 509 510 
3	195 508 509 
3	338 507 508 
1	507 
3	180 409 506 
3	132 505 506 
3	182 504 505 
3	246 503 504 
3	59 502 503 
3	275 501 502 
3	267 500 501 
3	91 499 500 
3	40 498 499 
3	81 497 498 
3	194 496 497 
3	323 495 496 
3	181 494 495 
3	191 493 494 
3	399 492 493 
3	236 491 492 
3	298 490 491 
3	321 489 490 
3	395 488 489 
3	179 487 488 
3	176 486 487 
3	253 485 486 
3	362 484 485 
1	484 
3	127 141 483 
3	34 482 483 
3	169 481 482 
3	357 480 481 
3	220 479 480 
3	21 478 479 
3	110 477 478 
3	405 476 477 
1	476 
3	69 307 475 
3	193 474 475 
3	213 473 474 
3	285 472 473 
3	199 471 472 
3	278 470 471 
3	314 469 470 
3	256 468 469 
3	26 467 468 
3	189 466 467 
3	390 465 466 
3	196 464 465 
3	228 463 464 
3	297 462 463 
3	75 461 462 
3	232 460 461 
3	344 459 460 
3	210 458 459 
3	88 457 458 
3	248 456 457 
3	51 455 456 
3	254 454 455 
3	87 453 454 
3	335 452 453 
3	186 451 452 
3	279 450 451 
3	188 449 450 
3	247 448 449 
3	271 447 448 
1	447 
3	55 303 446 
3	24 445 446 
3	230 444 445 
3	158 443 444 
3	409 442 443 
3	180 441 442 
3	132 440 441 
3	10 439 440 
3	8 438 439 
3	182 437 438 
3	246 436 437 
3	59 435 436 
3	267 434 435 
3	275 433 434 
3	91 432 433 
3	141 431 432 
3	40 430 431 
3	81 429 430 
3	194 428 429 
3	306 427 428 
3	323 426 427 
3	181 425 426 
3	191 424 425 
3	399 423 424 
3	236 422 423 
3	298 421 422 
3	321 420 421 
3	395 419 420 
3	273 418 419 
3	179 417 418 
3	177 416 417 
3	408 415 416 
3	176 414 415 
3	253 413 414 
3	362 412 413 
1	412 
1	230 
1	100 
1	199 
1	125 
1	205 
1	57 
1	106 
1	358 
1	89 
1	286 
1	327 
1	203 
1	393 
1	156 
1	140 
1	144 
1	248 
1	181 
1	73 
1	122 
1	342 
1	376 
1	24 
1	301 
1	278 
1	382 
1	400 
1	78 
1	300 
1	257 
1	231 
1	27 
1	47 
1	267 
1	345 
1	206 
1	232 
1	143 
1	212 
1	11 
1	124 
1	254 
1	173 
1	353 
1	395 
1	119 
1	179 
1	402 
1	408 
1	25 
1	180 
1	283 
1	407 
1	372 
1	331 
1	365 
1	243 
1	81 
1	178 
1	351 
1	175 
1	324 
1	30 
1	87 
1	32 
1	265 
1	349 
1	131 
1	110 
1	187 
1	55 
1	169 
1	386 
1	270 
1	72 
1	234 
1	378 
1	96 
1	228 
1	250 
1	325 
1	352 
1	134 
1	274 
1	15 
1	347 
1	14 
1	227 
1	70 
1	166 
1	411 
1	172 
1	363 
1	105 
1	193 
1	302 
1	371 
1	20 
1	117 
1	67 
1	132 
1	309 
1	66 
1	374 
1	153 
1	266 
1	319 
1	44 
1	333 
1	91 
1	118 
1	40 
1	148 
1	306 
1	165 
1	282 
1	41 
1	244 
1	90 
1	60 
1	336 
1	7 
1	329 
1	273 
1	29 
1	221 
1	225 
1	355 
1	311 
1	64 
1	406 
1	367 
1	322 
1	256 
1	201 
1	338 
1	398 
1	196 
1	312 
1	341 
1	85 
1	275 
1	293 
1	74 
1	170 
1	94 
1	240 
1	295 
1	288 
1	77 
1	103 
1	137 
1	129 
1	308 
1	229 
1	200 
1	190 
1	348 
1	346 
1	43 
1	272 
1	23 
1	68 
1	10 
1	48 
1	403 
1	242 
1	192 
1	58 
1	147 
1	317 
1	150 
1	366 
1	160 
1	277 
1	310 
1	22 
1	34 
1	88 
1	191 
1	296 
1	399 
1	146 
1	335 
1	202 
1	389 
1	377 
1	369 
1	33 
1	155 
1	6 
1	380 
1	42 
1	213 
1	62 
1	316 
1	161 
1	145 
1	8 
1	123 
1	26 
1	12 
1	216 
1	113 
1	313 
1	79 
1	93 
1	264 
1	387 
1	35 
1	268 
1	31 
1	361 
1	255 
1	289 
1	54 
1	217 
1	176 
1	112 
1	299 
1	326 
1	37 
1	152 
1	314 
1	281 
1	287 
1	99 
1	360 
1	297 
1	354 
1	263 
1	16 
1	344 
1	149 
1	391 
1	82 
1	222 
1	219 
1	186 
1	392 
1	104 
1	330 
1	238 
1	138 
1	215 
1	364 
1	334 
1	19 
1	174 
1	197 
1	224 
1	18 
1	28 
1	61 
1	251 
1	38 
1	276 
1	1 
1	46 
1	318 
1	130 
1	97 
1	80 
1	204 
1	4 
1	343 
1	405 
1	303 
1	307 
1	45 
1	357 
1	337 
1	182 
1	390 
1	226 
1	292 
1	381 
1	260 
1	102 
1	359 
1	141 
1	39 
1	111 
1	116 
1	76 
1	340 
1	321 
1	350 
1	279 
1	21 
1	63 
1	291 
1	135 
1	107 
1	69 
1	239 
1	127 
1	285 
1	209 
1	101 
1	269 
1	120 
1	246 
1	83 
1	53 
1	261 
1	109 
1	236 
1	50 
1	397 
1	373 
1	259 
1	284 
1	164 
1	158 
1	211 
1	159 
1	108 
1	189 
1	368 
1	142 
1	315 
1	56 
1	151 
1	13 
1	194 
1	84 
1	298 
1	356 
1	410 
1	370 
1	49 
1	207 
1	136 
1	71 
1	9 
1	253 
1	362 
1	385 
1	126 
1	396 
1	168 
1	3 
1	59 
1	223 
1	233 
1	332 
1	214 
1	198 
1	245 
1	162 
1	75 
1	305 
1	139 
1	163 
1	114 
1	294 
1	220 
1	235 
1	290 
1	167 
1	154 
1	401 
1	17 
1	252 
1	271 
1	320 
1	5 
1	409 
1	183 
1	195 
1	121 
1	128 
1	304 
1	92 
1	208 
1	171 
1	210 
1	184 
1	375 
1	241 
1	115 
1	157 
1	177 
1	36 
1	388 
1	237 
1	262 
1	339 
1	328 
1	133 
1	404 
1	249 
1	323 
1	2 
1	86 
1	218 
1	95 
1	51 
1	280 
1	52 
1	383 
1	65 
1	394 
1	0 
1	258 
1	379 
1	185 
1	98 
1	188 
1	247 
1	384 
0	

8
 1 0 0.1 0.9 0.5 0.5 0.05 0.95
8
 1 0 0 1 0.5 0 0.5 1
8
 1 0 0 1 0.5 0 0.5 1
8
 1 0 0 1 0.05 0 0.95 1
8
 1 0 0 1 0.5 0 0.5 1
8
 1 0 0 1 0.5 0 0.5 1
8
 1 0 0 1 0.2 0 0.8 1
8
 1 0 0 1 0.5 0 0.5 1
8
 1 0 0 1 0.5 0 0.5 1
8
 1 0 0 1 0.05 0 0.95 1
8
 1 0 0 1 0.5 0 0.5 1
8
 1 0 0 1 0.3 0 0.7 1
8
 1 0 0 1 0 0 1 1
8
 1 0 0 1 0.5 0 0.5 1
8
 1 0 0 1 0.2 0 0.8 1
2
 0.03 1
8
 1 0 0.9 0.1 0.9 0.1 0.81 0.19
8
 1 0 0 1 0.3 0 0.7 1
8
 1 0 0 1 0.5 0 0.5 1
8
 1 0 0 1 0.1 0 0.9 1
8
 1 0 0 1 0.9 0 0.1 1
8
 1 0 0 1 0.2 0 0.8 1
8
 1 0 0 1 0.9 0 0.1 1
8
 1 0 0 1 0.9 0 0.1 1
8
 1 0 0 1 0.7 0 0.3 1
8
 1 0 0 1 0.5 0 0.5 1
8
 1 0 0 1 0.5 0 0.5 1
8
 1 0 0 1 0.9 0 0.1 1
8
 1 0 0 1 0.9 0 0.1 1
8
 1 0 0 1 0.5 0 0.5 1
8
 1 0 0 1 0.9 0 0.1 1
8
 1 0 0 1 0.72 0 0.28 1
8
 1 0 0 1 0.9 0 0.1 1
8
 1 0 0 1 0.9 0 0.1 1
8
 1 0 0 1 0.5 0 0.5 1
8
 1 0 0 1 0.5 0 0.5 1
8
 1 0 0 1 0.8 0 0.2 1
8
 1 0 0 1 0.9 0 0.1 1
8
 1 0 0 1 0.3 0 0.7 1
8
 1 0 0 1 0.8 0 0.2 1
8
 1 0 0 1 0.2 0 0.8 1
8
 1 0 0 1 0.75 0 0.25 1
8
 1 0 0 1 0.9 0 0.1 1
8
 1 0 0 1 0.7 0 0.3 1
8
 1 0 0 1 0.3 0 0.7 1
8
 1 0 0 1 0.8 0 0.2 1
8
 1 0 0 1 0.9 0 0.1 1
8
 1 0 0 1 0.8 0 0.2 1
8
 1 0 0 1 0.1 0 0.9 1
8
 1 0 0 1 0.9 0 0.1 1
8
 1 0 0 1 0.1 0 0.9 1
8
 1 0 0 1 0.9 0 0.1 1
8
 1 0 0 1 0.9 0 0.1 1
8
 1 0 0 1 0.5 0 0.5 1
8
 1 0 0 1 0.9 0 0.1 1
8
 1 0 0 1 0.9 0 0.1 1
8
 1 0 0 1 0.2 0 0.8 1
8
 1 0 0 1 0.7 0 0.3 1
8
 1 0 0 1 0.3 0 0.7 1
8
 1 0 0 1 0.4 0 0.6 1
8
 1 0 0 1 0.9 0 0.1 1
8
 1 0 0 1 0.01 0 0.99 1
8
 1 0 0 1 0.9 0 0.1 1
8
 1 0 0 1 0.5 0 0.5 1
8
 1 0 0 1 0.5 0 0.5 1
8
 1 0 0 1 0.85 0 0.15 1
8
 1 0 0 1 0.9 0 0.1 1
8
 1 0 0 1 0.09 0 0.91 1
8
 1 0 0 1 0.5 0 0.5 1
8
 1 0 0 1 0.5 0 0.5 1
8
 1 0 0 1 0.9 0 0.1 1
8
 1 0 0 1 0.5 0 0.5 1
8
 1 0 0 1 0.9 0 0.1 1
8
 1 0 0 1 0.1 0 0.9 1
8
 1 0 0 1 0.9 0 0.1 1
8
 1 0 0 1 0.9 0 0.1 1
8
 1 0 0 1 0.5 0 0.5 1
8
 1 0 0 1 0.5 0 0.5 1
8
 1 0 0 1 0.5 0 0.5 1
8
 1 0 0 1 0.9 0 0.1 1
8
 1 0 0 1 0.5 0 0.5 1
8
 1 0 0 1 0.5 0 0.5 1
8
 1 0 0 1 0.9 0 0.1 1
8
 1 0 0 1 0.5 0 0.5 1
8
 1 0 0 1 0.9 0 0.1 1
8
 1 0 0 1 0.3 0 0.7 1
8
 1 0 0 1 0.9 0 0.1 1
8
 1 0 0 1 0.5 0 0.5 1
8
 1 0 0 1 0.9 0 0.1 1
8
 1 0 0 1 0.1 0 0.9 1
8
 1 0 0 1 0.5 0 0.5 1
8
 1 0 0 1 0.9 0 0.1 1
8
 1 0 0 1 0.2 0 0.8 1
8
 1 0 0 1 0.9 0 0.1 1
8
 1 0 0 1 0.9 0 0.1 1
8
 1 0 0 1 0.6 0 0.4 1
8
 1 0 0 1 0.9 0 0.1 1
8
 1 0 0 1 0.9 0 0.1 1
8
 1 0 0 1 0 0 1 1
8
 1 0 0 1 0.05 0 0.95 1
8
 1 0 0 1 0.5 0 0.5 1
8
 1 0 0 1 0.9 0 0.1 1
8
 1 0 0 1 0.1 0 0.9 1
8
 1 0 0 1 0.9 0 0.1 1
8
 1 0 0 1 0.9 0 0.1 1
8
 1 0 0 1 0.2 0 0.8 1
8
 1 0 0 1 0.9 0 0.1 1
8
 1 0 0 1 0.9 0 0.1 1
8
 1 0 0 1 0.5 0 0.5 1
8
 1 0 0 1 0.9 0 0.1 1
8
 1 0 0 1 0.1 0 0.9 1
8
 1 0 0 1 0.1 0 0.9 1
8
 1 0 0 1 0.9 0 0.1 1
8
 1 0 0 1 0.5 0 0.5 1
8
 1 0 0 1 0.5 0 0.5 1
8
 1 0 0 1 0.9 0 0.1 1
8
 1 0 0 1 0.4 0 0.6 1
8
 1 0 0 1 0.7 0 0.3 1
8
 1 0 0 1 0.5 0 0.5 1
8
 1 0 0 1 0.5 0 0.5 1
8
 1 0 0 1 0.9 0 0.1 1
8
 1 0 0 1 0.1 0 0.9 1
8
 1 0 0 1 0.5 0 0.5 1
8
 1 0 0 1 0.1 0 0.9 1
8
 1 0 0 1 0.9 0 0.1 1
8
 1 0 0 1 0.9 0 0.1 1
8
 1 0 0 1 0.5 0 0.5 1
8
 1 0 0 1 0.1 0 0.9 1
8
 1 0 0 1 0.9 0 0.1 1
8
 1 0 0 1 0.9 0 0.1 1
8
 1 0 0 1 0.9 0 0.1 1
8
 1 0 0 1 0.5 0 0.5 1
8
 1 0 0 1 0.5 0 0.5 1
8
 1 0 0 1 0.89 0 0.11 1
8
 1 0 0 1 0.9 0 0.1 1
8
 1 0 0 1 0.5 0 0.5 1
8
 1 0 0 1 0.47 0 0.53 1
8
 1 0 0 1 0.7 0 0.3 1
8
 1 0 0 1 0.5 0 0.5 1
8
 1 0 0 1 0.1 0 0.9 1
8
 1 0 0 1 0.7 0 0.3 1
8
 1 0 0 1 0.9 0 0.1 1
8
 1 0 0 1 0.1 0 0.9 1
8
 1 0 0 1 0.9 0 0.1 1
8
 1 0 0 1 0.9 0 0.1 1
8
 1 0 0 1 0.89 0 0.11 1
8
 1 0 0 1 0.5 0 0.5 1
8
 1 0 0 1 0.8 0 0.2 1
8
 1 0 0 1 0.9 0 0.1 1
8
 1 0 0 1 0.9 0 0.1 1
8
 1 0 0 1 0.2 0 0.8 1
8
 1 0 0 1 0.9 0 0.1 1
8
 1 0 0 1 0.19 0 0.81 1
8
 1 0 0 1 0.7 0 0.3 1
8
 1 0 0 1 0.89 0 0.11 1
8
 1 0 0 1 0.9 0 0.1 1
8
 1 0 0 1 0.8 0 0.2 1
8
 1 0 0 1 0.9 0 0.1 1
8
 1 0 0 1 0.9 0 0.1 1
8
 1 0 0 1 0.3 0 0.7 1
8
 1 0 0 1 0.5 0 0.5 1
8
 1 0 0 1 0.9 0 0.1 1
8
 1 0 0 1 0.3 0 0.7 1
8
 1 0 0 1 0.5 0 0.5 1
8
 1 0 0 1 0.05 0 0.95 1
8
 1 0 0 1 0.9 0 0.1 1
8
 1 0 0 1 0.1 0 0.9 1
8
 1 0 0 1 0.2 0 0.8 1
8
 1 0 0 1 0.8 0 0.2 1
8
 1 0 0 1 0.9 0 0.1 1
8
 1 0 0 1 0.1 0 0.9 1
8
 1 0 0 1 0.01 0 0.99 1
8
 1 0 0 1 0.8 0 0.2 1
8
 1 0 0 1 0.5 0 0.5 1
8
 1 0 0 1 0.3 0 0.7 1
8
 1 0 0 1 0.9 0 0.1 1
8
 1 0 0 1 0.3 0 0.7 1
8
 1 0 0 1 0.5 0 0.5 1
8
 1 0 0 1 0.9 0 0.1 1
8
 1 0 0 1 0.4 0 0.6 1
8
 1 0 0 1 0.9 0 0.1 1
8
 1 0 0 1 0.09 0 0.91 1
8
 1 0 0 1 0.95 0 0.05 1
8
 1 0 0 1 0.3 0 0.7 1
8
 1 0 0 1 0.35 0 0.65 1
8
 1 0 0 1 0.5 0 0.5 1
8
 1 0 0 1 0.9 0 0.1 1
8
 1 0 0 1 0.5 0 0.5 1
8
 1 0 0 1 0.4 0 0.6 1
8
 1 0 0 1 0.8 0 0.2 1
8
 1 0 0 1 0.3 0 0.7 1
8
 1 0 0 1 0.5 0 0.5 1
8
 1 0 0 1 0.5 0 0.5 1
8
 1 0 0 1 0.9 0 0.1 1
8
 1 0 0 1 0.6 0 0.4 1
8
 1 0 0 1 0.9 0 0.1 1
8
 1 0 0 1 0.9 0 0.1 1
8
 1 0 0 1 0.9 0 0.1 1
8
 1 0 0 1 0.9 0 0.1 1
8
 1 0 0 1 0.9 0 0.1 1
8
 1 0 0 1 0.9 0 0.1 1
8
 1 0 0 1 0.01 0 0.99 1
8
 1 0 0 1 0.9 0 0.1 1
8
 1 0 0 1 0.2 0 0.8 1
8
 1 0 0 1 0.7 0 0.3 1
8
 1 0 0 1 0.7 0 0.3 1
8
 1 0 0 1 0.9 0 0.1 1
8
 1 0 0 1 0.5 0 0.5 1
8
 1 0 0 1 0.9 0 0.1 1
8
 1 0 0 1 0.98 0 0.02 1
8
 1 0 0 1 0.5 0 0.5 1
8
 1 0 0 1 0.5 0 0.5 1
8
 1 0 0 1 0.7 0 0.3 1
8
 1 0 0 1 0.5 0 0.5 1
8
 1 0 0 1 0.8 0 0.2 1
8
 1 0 0 1 0.9 0 0.1 1
8
 1 0 0 1 0.9 0 0.1 1
8
 1 0 0 1 0.4 0 0.6 1
8
 1 0 0 1 0.9 0 0.1 1
8
 1 0 0 1 0.5 0 0.5 1
8
 1 0 0 1 0.2 0 0.8 1
8
 1 0 0 1 0.9 0 0.1 1
8
 1 0 0 1 0.9 0 0.1 1
8
 1 0 0 1 0.5 0 0.5 1
8
 1 0 0 1 0.9 0 0.1 1
8
 1 0 0 1 0.9 0 0.1 1
8
 1 0 0 1 0.9 0 0.1 1
8
 1 0 0 1 0.67 0 0.33 1
8
 1 0 0 1 0.5 0 0.5 1
8
 1 0 0 1 0.89 0 0.11 1
8
 1 0 0 1 0.3 0 0.7 1
8
 1 0 0 1 0.3 0 0.7 1
8
 1 0 0 1 0.9 0 0.1 1
8
 1 0 0 1 0.9 0 0.1 1
8
 1 0 0 1 0.1 0 0.9 1
8
 1 0 0 1 0.9 0 0.1 1
8
 1 0 0 1 0.34 0 0.66 1
8
 1 0 0 1 0.9 0 0.1 1
8
 1 0 0 1 0.9 0 0.1 1
8
 1 0 0 1 0.9 0 0.1 1
8
 1 0 0 1 0.5 0 0.5 1
8
 1 0 0 1 0.9 0 0.1 1
8
 1 0 0 1 0.9 0 0.1 1
8
 1 0 0 1 0.5 0 0.5 1
8
 1 0 0 1 0.5 0 0.5 1
8
 1 0 0 1 0.9 0 0.1 1
8
 1 0 0 1 0.9 0 0.1 1
8
 1 0 0 1 0.9 0 0.1 1
8
 1 0 0 1 0.7 0 0.3 1
8
 1 0 0 1 0.5 0 0.5 1
8
 1 0 0 1 0.9 0 0.1 1
8
 1 0 0 1 0.72 0 0.28 1
8
 1 0 0 1 0.72 0 0.28 1
8
 1 0 0 1 0.9 0 0.1 1
8
 1 0 0 1 0.9 0 0.1 1
8
 1 0 0 1 0.9 0 0.1 1
8
 1 0 0 1 0.25 0 0.75 1
8
 1 0 0 1 0.5 0 0.5 1
8
 1 0 0 1 0.7 0 0.3 1
8
 1 0 0 1 0.9 0 0.1 1
8
 1 0 0 1 0.9 0 0.1 1
8
 1 0 0 1 0.4 0 0.6 1
8
 1 0 0 1 0.9 0 0.1 1
8
 1 0 0 1 0.5 0 0.5 1
8
 1 0 0 1 0.9 0 0.1 1
8
 1 0 0 1 0.2 0 0.8 1
8
 1 0 0 1 0.8 0 0.2 1
8
 1 0 0 1 0.8 0 0.2 1
8
 1 0 0 1 0.9 0 0.1 1
8
 1 0 0 1 0.5 0 0.5 1
8
 1 0 0 1 0.9 0 0.1 1
8
 1 0 0 1 0.5 0 0.5 1
8
 1 0 0 1 0.9 0 0.1 1
8
 1 0 0 1 0.9 0 0.1 1
8
 1 0 0 1 0.9 0 0.1 1
8
 1 0 0 1 0.9 0 0.1 1
8
 1 0 0 1 0.9 0 0.1 1
8
 1 0 0 1 0.1 0 0.9 1
8
 1 0 0 1 0.5 0 0.5 1
8
 1 0 0 1 0.9 0 0.1 1
8
 1 0 0 1 0.9 0 0.1 1
8
 1 0 0 1 0.5 0 0.5 1
8
 1 0 0 1 0.7 0 0.3 1
8
 1 0 0 1 0.9 0 0.1 1
8
 1 0 0 1 0.9 0 0.1 1
8
 1 0 0 1 0.7 0 0.3 1
8
 1 0 0 1 0.9 0 0.1 1
8
 1 0 0 1 0.3 0 0.7 1
8
 1 0 0 1 0.3 0 0.7 1
8
 1 0 0 1 0.3 0 0.7 1
8
 1 0 0 1 0.9 0 0.1 1
8
 1 0 0 1 0.9 0 0.1 1
8
 1 0 0 1 0.3 0 0.7 1
8
 1 0 0 1 0.5 0 0.5 1
8
 1 0 0 1 0.1 0 0.9 1
8
 1 0 0 1 0.1 0 0.9 1
8
 1 0 0 1 0.3 0 0.7 1
8
 1 0 0 1 0.9 0 0.1 1
8
 1 0 0 1 0.2 0 0.8 1
8
 1 0 0 1 0.9 0 0.1 1
8
 1 0 0 1 0.9 0 0.1 1
8
 1 0 0 1 0.3 0 0.7 1
8
 1 0 0 1 0.5 0 0.5 1
8
 1 0 0 1 0.9 0 0.1 1
8
 1 0 0 1 0.8 0 0.2 1
8
 1 0 0 1 0.9 0 0.1 1
8
 1 0 0 1 0.6 0 0.4 1
2
 0.03 1
8
 1 0 0.5 0.5 0.6 0.4 0.3 0.7
8
 1 0 0 1 0.4 0 0.6 1
8
 1 0 0 1 0.5 0 0.5 1
8
 1 0 0 1 0.4 0 0.6 1
8
 1 0 0 1 0.5 0 0.5 1
8
 1 0 0 1 0.4 0 0.6 1
8
 1 0 0 1 0.1 0 0.9 1
8
 1 0 0 1 0.5 0 0.5 1
8
 1 0 0 1 0.4 0 0.6 1
8
 1 0 0 1 0.5 0 0.5 1
8
 1 0 0 1 0.2 0 0.8 1
8
 1 0 0 1 0.5 0 0.5 1
8
 1 0 0 1 0.4 0 0.6 1
8
 1 0 0 1 0.1 0 0.9 1
8
 1 0 0 1 0.75 0 0.25 1
8
 1 0 0 1 0.2 0 0.8 1
8
 1 0 0 1 0.1 0 0.9 1
8
 1 0 0 1 0.5 0 0.5 1
8
 1 0 0 1 0.5 0 0.5 1
8
 1 0 0 1 0.2 0 0.8 1
8
 1 0 0 1 0.9 0 0.1 1
8
 1 0 0 1 0.5 0 0.5 1
8
 1 0 0 1 0.4 0 0.6 1
8
 1 0 0 1 0.5 0 0.5 1
8
 1 0 0 1 0.2 0 0.8 1
8
 1 0 0 1 0.5 0 0.5 1
8
 1 0 0 1 0.5 0 0.5 1
8
 1 0 0 1 0.5 0 0.5 1
8
 1 0 0 1 0.4 0 0.6 1
8
 1 0 0 1 0.89 0 0.11 1
8
 1 0 0 1 0.5 0 0.5 1
8
 1 0 0 1 0.9 0 0.1 1
8
 1 0 0 1 0.1 0 0.9 1
8
 1 0 0 1 0.1 0 0.9 1
8
 1 0 0 1 0.4 0 0.6 1
8
 1 0 0 1 0.2 0 0.8 1
8
 1 0 0 1 0.4 0 0.6 1
8
 1 0 0 1 0.2 0 0.8 1
8
 1 0 0 1 0.2 0 0.8 1
8
 1 0 0 1 0.2 0 0.8 1
8
 1 0 0 1 0.4 0 0.6 1
8
 1 0 0 1 0.5 0 0.5 1
8
 1 0 0 1 0.1 0 0.9 1
8
 1 0 0 1 0.05 0 0.95 1
8
 1 0 0 1 0.6 0 0.4 1
8
 1 0 0 1 0.5 0 0.5 1
8
 1 0 0 1 0.5 0 0.5 1
2
 0.03 1
8
 1 0 0.1 0.9 0.5 0.5 0.05 0.95
8
 1 0 0 1 0.89 0 0.11 1
8
 1 0 0 1 0.01 0 0.99 1
8
 1 0 0 1 0.5 0 0.5 1
8
 1 0 0 1 0.89 0 0.11 1
8
 1 0 0 1 0 0 1 1
8
 1 0 0 1 0.89 0 0.11 1
8
 1 0 0 1 0.5 0 0.5 1
8
 1 0 0 1 0.5 0 0.5 1
8
 1 0 0 1 0.01 0 0.99 1
8
 1 0 0 1 0.7 0 0.3 1
8
 1 0 0 1 0.5 0 0.5 1
8
 1 0 0 1 0.7 0 0.3 1
8
 1 0 0 1 0.01 0 0.99 1
8
 1 0 0 1 0.5 0 0.5 1
8
 1 0 0 1 0 0 1 1
8
 1 0 0 1 0.5 0 0.5 1
8
 1 0 0 1 0.89 0 0.11 1
8
 1 0 0 1 0.5 0 0.5 1
8
 1 0 0 1 0.89 0 0.11 1
8
 1 0 0 1 0.78 0 0.22 1
8
 1 0 0 1 0.5 0 0.5 1
8
 1 0 0 1 0.89 0 0.11 1
8
 1 0 0 1 0.1 0 0.9 1
8
 1 0 0 1 0.7 0 0.3 1
8
 1 0 0 1 0.89 0 0.11 1
8
 1 0 0 1 0.5 0 0.5 1
8
 1 0 0 1 0.89 0 0.11 1
8
 1 0 0 1 0.5 0 0.5 1
8
 1 0 0 1 0.5 0 0.5 1
8
 1 0 0 1 0 0 1 1
8
 1 0 0 1 0.89 0 0.11 1
8
 1 0 0 1 0.7 0 0.3 1
8
 1 0 0 1 0.89 0 0.11 1
8
 1 0 0 1 0.5 0 0.5 1
8
 1 0 0 1 0.8 0 0.2 1
8
 1 0 0 1 0.4 0 0.6 1
8
 1 0 0 1 0.89 0 0.11 1
8
 1 0 0 1 0.5 0 0.5 1
8
 1 0 0 1 0.89 0 0.11 1
2
 0.03 1
8
 1 0 0.5 0.5 0.8 0.2 0.4 0.6
8
 1 0 0 1 0.5 0 0.5 1
8
 1 0 0 1 0.01 0 0.99 1
8
 1 0 0 1 0.5 0 0.5 1
8
 1 0 0 1 0.6 0 0.4 1
8
 1 0 0 1 0.5 0 0.5 1
8
 1 0 0 1 0.5 0 0.5 1
2
 0.03 1
8
 1 0 0.2 0.8 0.5 0.5 0.1 0.9
8
 1 0 0 1 0.5 0 0.5 1
8
 1 0 0 1 0.5 0 0.5 1
8
 1 0 0 1 0.05 0 0.95 1
8
 1 0 0 1 0.5 0 0.5 1
8
 1 0 0 1 0.5 0 0.5 1
8
 1 0 0 1 0.01 0 0.99 1
8
 1 0 0 1 0.5 0 0.5 1
8
 1 0 0 1 0.1 0 0.9 1
8
 1 0 0 1 0.09 0 0.91 1
8
 1 0 0 1 0.5 0 0.5 1
8
 1 0 0 1 0.5 0 0.5 1
8
 1 0 0 1 0.5 0 0.5 1
8
 1 0 0 1 0.5 0 0.5 1
8
 1 0 0 1 0.2 0 0.8 1
8
 1 0 0 1 0.05 0 0.95 1
8
 1 0 0 1 0.5 0 0.5 1
8
 1 0 0 1 0.5 0 0.5 1
8
 1 0 0 1 0.05 0 0.95 1
8
 1 0 0 1 0.5 0 0.5 1
8
 1 0 0 1 0.5 0 0.5 1
8
 1 0 0 1 0.5 0 0.5 1
8
 1 0 0 1 0.1 0 0.9 1
2
 0.03 1
8
 1 0 0.57 0.43 0.5 0.5 0.285 0.715
8
 1 0 0 1 0.5 0 0.5 1
8
 1 0 0 1 0.5 0 0.5 1
8
 1 0 0 1 0.5 0 0.5 1
8
 1 0 0 1 0.5 0 0.5 1
8
 1 0 0 1 0.5 0 0.5 1
8
 1 0 0 1 0.4 0 0.6 1
8
 1 0 0 1 0.01 0 0.99 1
2
 0.03 1
8
 1 0 0.2 0.8 0.5 0.5 0.1 0.9
8
 1 0 0 1 0.5 0 0.5 1
8
 1 0 0 1 0.5 0 0.5 1
8
 1 0 0 1 0.89 0 0.11 1
8
 1 0 0 1 0.5 0 0.5 1
8
 1 0 0 1 0.5 0 0.5 1
8
 1 0 0 1 0.1 0 0.9 1
8
 1 0 0 1 0.5 0 0.5 1
8
 1 0 0 1 0.89 0 0.11 1
8
 1 0 0 1 0.9 0 0.1 1
8
 1 0 0 1 0.5 0 0.5 1
8
 1 0 0 1 0 0 1 1
8
 1 0 0 1 0.5 0 0.5 1
8
 1 0 0 1 0.5 0 0.5 1
8
 1 0 0 1 0.89 0 0.11 1
8
 1 0 0 1 0.89 0 0.11 1
8
 1 0 0 1 0.5 0 0.5 1
8
 1 0 0 1 0.5 0 0.5 1
8
 1 0 0 1 0.01 0 0.99 1
8
 1 0 0 1 0.5 0 0.5 1
8
 1 0 0 1 0.3 0 0.7 1
8
 1 0 0 1 0.5 0 0.5 1
8
 1 0 0 1 0.1 0 0.9 1
8
 1 0 0 1 0.5 0 0.5 1
8
 1 0 0 1 0.09 0 0.91 1
8
 1 0 0 1 0.5 0 0.5 1
8
 1 0 0 1 0.89 0 0.11 1
8
 1 0 0 1 0.5 0 0.5 1
8
 1 0 0 1 0 0 1 1
2
 0.03 1
8
 1 0 0.5 0.5 0.8 0.2 0.4 0.6
8
 1 0 0 1 0.9 0 0.1 1
8
 1 0 0 1 0.01 0 0.99 1
8
 1 0 0 1 0.6 0 0.4 1
8
 1 0 0 1 0.4 0 0.6 1
8
 1 0 0 1 0.5 0 0.5 1
8
 1 0 0 1 0.5 0 0.5 1
8
 1 0 0 1 0.1 0 0.9 1
8
 1 0 0 1 0.6 0 0.4 1
8
 1 0 0 1 0.5 0 0.5 1
8
 1 0 0 1 0.1 0 0.9 1
8
 1 0 0 1 0.5 0 0.5 1
8
 1 0 0 1 0.1 0 0.9 1
8
 1 0 0 1 0.5 0 0.5 1
8
 1 0 0 1 0.5 0 0.5 1
8
 1 0 0 1 0.75 0 0.25 1
8
 1 0 0 1 0.1 0 0.9 1
8
 1 0 0 1 0.5 0 0.5 1
8
 1 0 0 1 0.5 0 0.5 1
8
 1 0 0 1 0.05 0 0.95 1
8
 1 0 0 1 0.2 0 0.8 1
8
 1 0 0 1 0.5 0 0.5 1
8
 1 0 0 1 0.5 0 0.5 1
8
 1 0 0 1 0.2 0 0.8 1
8
 1 0 0 1 0.1 0 0.9 1
8
 1 0 0 1 0.5 0 0.5 1
8
 1 0 0 1 0.5 0 0.5 1
8
 1 0 0 1 0.05 0 0.95 1
8
 1 0 0 1 0.3 0 0.7 1
8
 1 0 0 1 0.5 0 0.5 1
8
 1 0 0 1 0.01 0 0.99 1
8
 1 0 0 1 0.5 0 0.5 1
8
 1 0 0 1 0.5 0 0.5 1
8
 1 0 0 1 0.5 0 0.5 1
8
 1 0 0 1 0.1 0 0.9 1
2
 0.03 1
2
 0.99992 8e-05
2
 1 1.8e-07
2
 0.9999 0.0001
2
 0.999995 5e-06
2
 1 9e-08
2
 1 8e-08
2
 0.99999 1e-05
2
 0.99999 1e-05
2
 0.99975 0.00025
2
 0.999993 7e-06
2
 0.9998 0.0002
2
 0.99995 5e-05
2
 1 4e-08
2
 0.99999 1e-05
2
 0.999999 1.4e-06
2
 0.999998 2e-06
2
 0.999998 2e-06
2
 0.9999 0.0001
2
 0.9999 0.0001
2
 0.999977 2.342e-05
2
 0.9999 0.0001
2
 1 1e-08
2
 0.99999 1e-05
2
 0.99998 2.042e-05
2
 0.99992 8e-05
2
 1 1e-08
2
 0.99988 0.00012
2
 0.9993 0.0007
2
 1 1.1e-07
2
 0.99809 0.00191
2
 0.999996 3.64e-06
2
 0.999995 5e-06
2
 0.999999 1.448e-06
2
 0.9996 0.0004
2
 0.99999 1e-05
2
 0.999999 1.26e-06
2
 0.99996 4e-05
2
 0.99998 2e-05
2
 0.9999 0.0001
2
 0.9999 0.0001
2
 1 1e-08
2
 0.9995 0.0005
2
 0.9992 0.0008
2
 0.9999 0.0001
2
 0.9999 0.0001
2
 1 1e-08
2
 0.99992 8e-05
2
 0.9995 0.0005
2
 0.99989 0.00011
2
 0.99991 9e-05
2
 0.9996 0.0004
2
 0.999957 4.295e-05
2
 1 6e-08
2
 1 1.1e-07
2
 0.999999 1e-06
2
 0.9999 0.0001
2
 0.99995 5e-05
2
 0.999 0.001
2
 0.99991 9e-05
2
 0.9998 0.0002
2
 1 8e-08
2
 0.99986 0.00014
2
 0.99982 0.00018
2
 0.9999 0.0001
2
 1 4e-08
2
 0.99995 5e-05
2
 0.99995 5e-05
2
 0.999999 6.9e-07
2
 0.9998 0.0002
2
 0.99984 0.00016
2
 0.99998 2e-05
2
 0.9999 0.0001
2
 0.99999 1e-05
2
 0.99995 5e-05
2
 0.999989 1.08e-05
2
 0.9975 0.0025
2
 0.9995 0.0005
2
 0.99994 6e-05
2
 0.99996 4e-05
2
 0.9998 0.0002
2
 0.9999 0.0001
2
 0.99991 9e-05
2
 0.99989 0.00011
2
 0.999999 1e-06
2
 0.9999 0.0001
2
 0.9999 0.0001
2
 0.99991 9e-05
2
 1 3.6e-07
2
 0.999 0.001
2
 1 1e-08
2
 1 4e-08
2
 0.99989 0.00011
2
 0.999999 6.6e-07
2
 0.9999 0.0001
2
 0.9999 0.0001
2
 1 1.7e-07
2
 0.999977 2.291e-05
2
 0.999999 1.2e-06
2
 0.996 0.004
2
 0.999 0.001
2
 0.999999 1e-06
2
 0.9999 0.0001
2
 0.999981 1.92e-05
2
 0.99998 2e-05
2
 0.999959 4.084e-05
2
 0.995 0.005
2
 0.999999 1e-06
2
 0.99998 2.003e-05
2
 0.999998 2e-06
2
 0.9999 0.0001
2
 0.99989 0.00011
2
 0.9999 0.0001
2
 0.9997 0.0003
2
 0.9995 0.0005
2
 1 1e-08
2
 0.9995 0.0005
2
 0.9998 0.0002
2
 0.9999 0.0001
2
 1 2.8e-07
2
 0.999991 8.59e-06
2
 0.99995 5e-05
2
 0.99988 0.00012
2
 1 1e-08
2
 0.99992 8e-05
2
 0.9985 0.0015
2
 0.999999 1e-06
2
 0.99999 1e-05
2
 0.9999 0.0001
2
 0.9991 0.0009
2
 1 1e-08
2
 0.9999 0.0001
2
 0.999999 1e-06
2
 0.999995 5.23e-06
2
 0.9999 0.0001
2
 0.999996 4e-06
2
 0.9999 0.0001
2
 1 1.6e-07
2
 0.99999 1e-05
2
 0.99962 0.00038
2
 0.99999 1e-05
2
 0.99998 2e-05
2
 0.99989 0.00011
2
 0.9999 0.0001
2
 0.999999 5.9e-07
2
 0.999999 1e-06
2
 0.9992 0.0008
2
 0.99975 0.00025
2
 0.999993 6.77e-06
2
 0.9999 0.0001
2
 1 5e-08
2
 0.999982 1.82e-05
2
 0.9995 0.0005
2
 0.9995 0.0005
2
 0.99999 1e-05
2
 1 1.4e-07
2
 0.9998 0.0002
2
 0.999953 4.733e-05
2
 0.99998 2e-05
2
 1 1e-08
2
 0.9999 0.0001
2
 0.99994 6e-05
2
 1 1e-08
2
 0.99989 0.00011
2
 0.99991 9e-05
2
 0.99991 9e-05
2
 0.999997 3.18e-06
2
 0.99987 0.00013
2
 1 1e-08
2
 0.9999 0.0001
2
 1 9e-08
2
 1 1.1e-07
2
 0.99997 3e-05
2
 0.9995 0.0005
2
 1 2.9e-07
2
 1 6e-08
2
 1 2e-08
2
 0.999992 7.67e-06
2
 0.99994 6e-05
2
 0.9998 0.0002
2
 0.9979 0.0021
2
 0.999994 6e-06
2
 0.9998 0.0002
2
 0.99989 0.00011
2
 0.99999 1e-05
2
 0.999999 1e-06
2
 0.999555 0.00044466
2
 1 1e-07
2
 0.999999 1e-06
2
 0.9999 0.0001
2
 0.999998 2.143e-06
2
 0.999999 1e-06
2
 1 5e-07
2
 1 1e-08
2
 0.99998 2e-05
2
 1 1e-08
2
 0.999985 1.48e-05
2
 0.9997 0.0003
2
 0.9996 0.0004
2
 0.999999 1e-06
2
 0.99995 5e-05
2
 0.9999 0.0001
2
 1 1e-08
2
 1 1e-08
2
 0.99996 4e-05
2
 0.99995 5e-05
2
 0.99998 2e-05
2
 1 1.1e-07
2
 1 1e-07
2
 0.99998 2e-05
2
 1 1e-07
2
 0.99997 3e-05
2
 0.99999 1e-05
2
 0.9997 0.0003
2
 0.999585 0.000415
2
 0.999991 9.42e-06
2
 0.9998 0.0002
2
 0.9997 0.0003
2
 0.999 0.001
2
 0.9999 0.0001
2
 0.9995 0.0005
2
 1 3.3e-07
2
 0.99995 5e-05
2
 0.9999 0.0001
2
 0.99995 5e-05
2
 0.999999 8.1e-07
2
 0.9986 0.0014
2
 0.99999 1e-05
2
 0.9999 0.0001
2
 0.9981 0.0019
2
 0.99999 1e-05
2
 0.99989 0.00011
2
 0.99989 0.00011
2
 0.9995 0.0005
2
 0.999996 3.67e-06
2
 0.9985 0.0015
2
 0.999995 5.26e-06
2
 0.999943 5.69e-05
2
 0.99994 6e-05
2
 0.9996 0.0004
2
 0.99999 9.61e-06
2
 0.999913 8.704e-05
2
 0.999999 9.9e-07
2
 1 6e-08
2
 0.999998 2e-06
2
 0.999999 1e-06
2
 0.99989 0.00011
2
 0.99974 0.00026
2
 0.999964 3.587e-05
2
 1 1e-07
2
 0.99996 4e-05
2
 0.9994 0.0006
2
 0.99989 0.00011
2
 0.99982 0.00018
2
 0.999995 5.24e-06
2
 0.9999 0.0001
2
 0.9999 0.0001
2
 0.9999 0.0001
2
 0.9994 0.0006
2
 1 1e-08
2
 1 1.7e-07
2
 1 1.2e-07
2
 0.999991 8.64e-06
2
 1 1.1e-07
2
 0.999996 3.57e-06
2
 0.9999 0.0001
2
 0.99999 1e-05
2
 0.99998 2e-05
2
 0.99989 0.00011
2
 0.9999 0.0001
2
 1 1e-07
2
 0.99996 4e-05
2
 1 9e-08
2
 0.999973 2.7e-05
2
 0.99991 9e-05
2
 1 1.1e-07
2
 0.999999 6e-07
2
 1 2e-07
2
 0.9999 0.0001
2
 1 1.6e-07
2
 1 1e-08
2
 0.9999 0.0001
2
 1 2e-08
2
 0.999999 1e-06
2
 0.9998 0.0002
2
 1 1e-08
2
 0.999997 2.88e-06
2
 0.9995 0.0005
2
 0.99922 0.00078
2
 0.9998 0.0002
2
 0.99995 5e-05
2
 1 1e-08
2
 0.9999 0.0001
2
 0.99989 0.00011
2
 0.9998 0.0002
2
 1 5e-07
2
 0.9994 0.0006
2
 0.99999 1e-05
2
 0.9999 0.0001
2
 0.99995 5e-05
2
 0.99999 1e-05
2
 0.999999 1e-06
2
 1 7e-08
2
 0.9998 0.0002
2
 0.9995 0.0005
2
 0.9999 0.0001
2
 0.9999 0.0001
2
 0.996 0.004
2
 0.9996 0.0004
2
 0.999998 2e-06
2
 1 4e-08
2
 0.99995 5e-05
2
 0.99984 0.00016
2
 0.999998 2.24e-06
2
 0.99975 0.00025
2
 0.9995 0.0005
2
 0.999999 1e-06
2
 0.9998 0.0002
2
 0.999838 0.0001616
2
 0.9985 0.0015
2
 0.9999 0.0001
2
 1 1e-08
2
 0.9988 0.0012
2
 0.9995 0.0005
2
 1 2.3e-07
2
 0.999979 2.06e-05
2
 0.999999 6.2e-07
2
 0.99974 0.00026
2
 1 1.2e-07
2
 0.999999 6.6e-07
2
 0.9995 0.0005
2
 0.99985 0.00015
2
 0.999994 6.29e-06
2
 0.999921 7.933e-05
2
 0.9996 0.0004
2
 0.99999 1e-05
2
 0.9997 0.0003
2
 0.999997 2.82e-06
2
 0.99999 1e-05
2
 0.9995 0.0005
2
 0.9999 0.0001
2
 1 2e-08
2
 1 2e-08
2
 1 3.1e-07
2
 0.9994 0.0006
2
 0.9999 0.0001
2
 0.9995 0.0005
2
 0.999907 9.332e-05
2
 0.999998 2e-06
2
 1 1e-08
2
 0.9994 0.0006
2
 0.999993 6.69e-06
2
 0.9999 0.0001
2
 0.999999 5.4e-07
2
 0.999993 6.53e-06
2
 0.999999 1e-06
2
 0.999999 1e-06
2
 1 4e-08
2
 0.99975 0.00025
2
 0.9999 0.0001
2
 0.99999 1e-05
2
 1 2.9e-07
2
 1 1.1e-07
2
 0.999994 6.39e-06
2
 0.9999 0.0001
2
 0.99999 1e-05
2
 0.9999 0.0001
2
 0.99999 1e-05
2
 0.999921 7.93e-05
2
 0.9995 0.0005
2
 0.9999 0.0001
2
 0.9999 0.0001
2
 0.99999 1e-05
2
 0.999722 0.0002777
2
 0.99991 9e-05
2
 0.9995 0.0005
2
 0.99997 3e-05
2
 0.9997 0.0003
2
 0.9995 0.0005
2
 0.9995 0.0005
2
 1 5e-07
2
 0.9999 0.0001
2
 1 1e-08
2
 0.9999 0.0001
2
 0.9996 0.0004
2
 0.9991 0.0009
2
 1 1e-08
2
 0.99994 6.019e-05
2
 0.9995 0.0005
2
 0.9999 0.0001
2
 0.99875 0.00125
2
 0.99989 0.00011
2
 0.99989 0.00011
2
 0.999999 1e-06
2
 0.9995 0.0005
2
 0.99997 3e-05
2
 1 1.1e-07
2
 1 1e-07
2
 0.9999 0.0001
2
 0.9999 0.0001
2
 1 4e-08
2
 0.9999 0.0001
2
 0.99997 3e-05
2
 0.999974 2.595e-05
2
 1 5e-08
2
 0.99996 4e-05
2
 0.9994 0.0006
2
 0.9999 0.0001
2
 0.999982 1.776e-05
2
 1 2.3e-07
2
 0.9999 0.0001
2
 0.99996 4e-05
2
 1 5e-07
1
 1

